instances/in_40_20_10_1.lp
#const n = 40.
#const k = 20.
#const h = 10.
tile(1,11,2).
tile(2,4,14).
tile(3,15,15).
tile(4,10,9).
tile(5,10,20).
tile(6,1,13).
tile(7,11,14).
tile(8,17,5).
tile(9,12,3).
tile(10,5,20).
tile(11,6,1).
tile(12,17,9).
tile(13,16,19).
tile(14,18,7).
tile(15,18,9).
tile(16,16,9).
tile(17,5,10).
tile(18,4,9).
tile(19,1,15).
tile(20,19,15).
tile(21,12,4).
tile(22,4,7).
tile(23,1,8).
tile(24,19,13).
tile(25,1,12).
tile(26,12,1).
tile(27,3,12).
tile(28,1,8).
tile(29,8,10).
tile(30,2,20).
tile(31,20,9).
tile(32,17,15).
tile(33,6,3).
tile(34,11,2).
tile(35,14,7).
tile(36,3,18).
tile(37,5,1).
tile(38,9,14).
tile(39,6,7).
tile(40,7,15).
