minizinc/input/in_40_20_10_1.dzn
n = 40;
k = 20;
h = 10;
tiles = array2d(1..n, 1..2,
[ 11,2
, 4,14
, 15,15
, 10,9
, 10,20
, 1,13
, 11,14
, 17,5
, 12,3
, 5,20
, 6,1
, 17,9
, 16,19
, 18,7
, 18,9
, 16,9
, 5,10
, 4,9
, 1,15
, 19,15
, 12,4
, 4,7
, 1,8
, 19,13
, 1,12
, 12,1
, 3,12
, 1,8
, 8,10
, 2,20
, 20,9
, 17,15
, 6,3
, 11,2
, 14,7
, 3,18
, 5,1
, 9,14
, 6,7
, 7,15
]);